min: x1 + x2 + x3 + x4 + x5 + x6 + x7 + x8 + x9 + x10 + x11 + x12 + x13 + x14 + x15 + x16 + x17 + x18 + x19 + x20 + x21 + x22 + x23 + x24 + x25 + x26 + x27 + x28 + x29 + x30;
x1 + x11 >= 1;
x2 + x12 >= 1;
x3 + x13 >= 1;
x4 + x14 >= 1;
x5 + x15 >= 1;
x6 + x16 >= 1;
x7 + x17 >= 1;
x8 + x18 >= 1;
x9 + x19 >= 1;
x10 + x20 >= 1;
x11 + x21 >= 1;
x11 + x22 >= 1;
x11 + x23 >= 1;
x11 + x24 >= 1;
x11 + x25 >= 1;
x11 + x26 >= 1;
x11 + x27 >= 1;
x11 + x28 >= 1;
x11 + x29 >= 1;
x11 + x30 >= 1;
x12 + x22 >= 1;
x12 + x23 >= 1;
x12 + x24 >= 1;
x12 + x25 >= 1;
x12 + x26 >= 1;
x12 + x27 >= 1;
x12 + x28 >= 1;
x12 + x29 >= 1;
x12 + x30 >= 1;
x13 + x23 >= 1;
x13 + x24 >= 1;
x13 + x25 >= 1;
x13 + x26 >= 1;
x13 + x27 >= 1;
x13 + x28 >= 1;
x13 + x29 >= 1;
x13 + x30 >= 1;
x14 + x24 >= 1;
x14 + x25 >= 1;
x14 + x26 >= 1;
x14 + x27 >= 1;
x14 + x28 >= 1;
x14 + x29 >= 1;
x14 + x30 >= 1;
x15 + x25 >= 1;
x15 + x26 >= 1;
x15 + x27 >= 1;
x15 + x28 >= 1;
x15 + x29 >= 1;
x15 + x30 >= 1;
x16 + x26 >= 1;
x16 + x27 >= 1;
x16 + x28 >= 1;
x16 + x29 >= 1;
x16 + x30 >= 1;
x17 + x27 >= 1;
x17 + x28 >= 1;
x17 + x29 >= 1;
x17 + x30 >= 1;
x18 + x28 >= 1;
x18 + x29 >= 1;
x18 + x30 >= 1;
x19 + x29 >= 1;
x19 + x30 >= 1;
x20 + x30 >= 1;
bin x1;
bin x2;
bin x3;
bin x4;
bin x5;
bin x6;
bin x7;
bin x8;
bin x9;
bin x10;
bin x11;
bin x12;
bin x13;
bin x14;
bin x15;
bin x16;
bin x17;
bin x18;
bin x19;
bin x20;
bin x21;
bin x22;
bin x23;
bin x24;
bin x25;
bin x26;
bin x27;
bin x28;
bin x29;
bin x30;
